peakDumbCharging = 25900; 
Machine = anon_enum(16); 
machineSpeed = [3700,3700,3700,3700,3700,3700,3700,3700,3700,3700,3700,3700,3700,3700,3700,3700]; 
machineLoad = [3700,3700,3700,3700,3700,3700,3700,3700,3700,3700,3700,3700,3700,3700,3700,3700]; 
Car = anon_enum(42); 
demandCar = [14600,1800,15520,5480,4440,960,16760,9960,6880,12880,4560,7440,4120,2680,10800,7400,7960,6080,3040,5120,12040,1320,14960,9040,10040,5160,3120,22360,5680,7720,10240,6360,1440,5080,7440,4480,2600,1320,15280,25080,19600,21640]; 
arrivalCar = [70,68,67,67,66,64,63,63,62,61,60,60,59,59,58,58,57,56,56,53,53,50,48,47,47,46,46,46,41,40,39,39,39,38,36,34,32,30,30,23,23,19]; 
departureCar = [76,70,74,70,70,65,76,67,67,69,64,65,63,61,62,61,62,61,59,57,58,52,54,52,52,51,49,54,46,44,44,42,40,42,40,37,34,38,36,49,59,29]; 
